DIMENSION: 100
41
71
100
48
14
43
3
46
29
34
83
55
67
28
93
58
47
99
36
38
24
18
79
53
88
16
22
94
70
26
66
65
4
19
75
97
56
80
31
89
42
8
92
1
63
6
49
90
84
10
72
21
74
59
17
15
11
32
45
91
98
23
77
60
62
35
86
27
12
20
57
7
9
87
51
61
25
81
69
64
40
54
2
44
50
73
68
85
39
30
52
78
96
5
37
76
33
13
95
